[on. 05. april 15:31:24 +0200 2023]  ./input/alternate_g_np_100/100-2-2.gcc
Set parameter Username
Academic license - for non-commercial use only - expires 2024-03-28
Set parameter TimeLimit to value 1800
Set parameter PreCrush to value 1
Set parameter LazyConstraints to value 1
Gurobi Optimizer version 10.0.1 build v10.0.1rc0 (linux64)

CPU model: AMD Ryzen 9 5950X 16-Core Processor, instruction set [SSE2|AVX|AVX2]
Thread count: 16 physical cores, 32 logical processors, using up to 32 threads

Optimize a model with 101 rows, 200 columns and 400 nonzeros
Model fingerprint: 0xa50903ef
Variable types: 0 continuous, 200 integer (200 binary)
Coefficient statistics:
  Matrix range     [1e+00, 1e+00]
  Objective range  [1e+00, 1e+02]
  Bounds range     [1e+00, 1e+00]
  RHS range        [1e+00, 1e+00]
Presolve time: 0.00s
Presolved: 101 rows, 200 columns, 400 nonzeros
Variable types: 0 continuous, 200 integer (200 binary)

Root relaxation: objective 4.972000e+03, 1 iterations, 0.00 seconds (0.00 work units)

    Nodes    |    Current Node    |     Objective Bounds      |     Work
 Expl Unexpl |  Obj  Depth IntInf | Incumbent    BestBd   Gap | It/Node Time

     0     0 4972.00000    0    -          - 4972.00000      -     -    0s
     0     0 4972.00000    0    -          - 4972.00000      -     -    0s
     0     0 4972.00000    0    8          - 4972.00000      -     -    0s
     0     0 4972.00000    0    -          - 4972.00000      -     -    0s
     0     0 4972.00000    0    -          - 4972.00000      -     -    0s
     0     0 4972.00000    0    -          - 4972.00000      -     -    0s
     0     0 4972.00000    0    -          - 4972.00000      -     -    0s
     0     0 4972.00000    0    -          - 4972.00000      -     -    0s
     0     0 4972.00000    0    -          - 4972.00000      -     -    0s
     0     0 4972.00000    0    -          - 4972.00000      -     -    0s
     0     0 4972.00000    0    -          - 4972.00000      -     -    0s
     0     0 4972.00000    0    -          - 4972.00000      -     -    0s
     0     0 4972.00000    0    -          - 4972.00000      -     -    0s
     0     0 4972.00000    0    -          - 4972.00000      -     -    0s
     0     0 4972.00000    0    -          - 4972.00000      -     -    0s
     0     0 4972.00000    0    -          - 4972.00000      -     -    0s
     0     0 4972.00000    0    -          - 4972.00000      -     -    0s
     0     0 4972.00000    0    -          - 4972.00000      -     -    0s
     0     0 4972.00000    0    -          - 4972.00000      -     -    0s
     0     0 4972.00000    0    -          - 4972.00000      -     -    0s
     0     0 4972.00000    0    -          - 4972.00000      -     -    0s
     0     0 4972.00000    0    -          - 4972.00000      -     -    0s
     0     0 4972.00000    0    -          - 4972.00000      -     -    0s
     0     0 4972.00000    0    -          - 4972.00000      -     -    0s
     0     0 4972.00000    0    -          - 4972.00000      -     -    0s
     0     0 4972.00000    0    -          - 4972.00000      -     -    0s
     0     0 4972.00000    0    -          - 4972.00000      -     -    0s
     0     0 4972.00000    0    -          - 4972.00000      -     -    0s
     0     0 4972.00000    0    -          - 4972.00000      -     -    0s
     0     0 4972.00000    0    -          - 4972.00000      -     -    0s
     0     0 4972.00000    0    -          - 4972.00000      -     -    0s
     0     0 4958.33333    0   86          - 4958.33333      -     -    0s
     0     0 4951.50000    0   76          - 4951.50000      -     -    0s
     0     0 4951.50000    0    6          - 4951.50000      -     -    0s
     0     2 4951.50000    0    6          - 4951.50000      -     -    0s
 10592  3560 4481.00000   30   10          - 4804.00000      -  18.3    5s
*12378  4150              52    4267.0000000 4787.00000  12.2%  19.7    6s
H12721  4203                    4277.0000000 4787.00000  11.9%  20.0    7s
H13069  4321                    4284.0000000 4773.00000  11.4%  20.2    7s
 15347  5396 4657.81538   28  111 4284.00000 4746.00000  10.8%  22.1   10s
 19522  7317 4329.40909   34   34 4284.00000 4712.00000  10.0%  24.9   15s
 24490  9588     cutoff   34      4284.00000 4705.00000  9.83%  25.8   20s
*28252  8522              25    4361.0000000 4679.00000  7.29%  26.1   24s
 29011  8497 4593.00000   30    - 4361.00000 4675.00000  7.20%  26.1   25s
H29065  3346                    4521.0000000 4675.00000  3.41%  26.1   25s
 33583   364 infeasible   43      4521.00000 4603.00000  1.81%  25.9   30s

Cutting planes:
  User: 4728
  Gomory: 76
  MIR: 3
  Flow cover: 5
  Zero half: 13
  RLT: 9
  Lazy constraints: 3303

Explored 36173 nodes (901201 simplex iterations) in 30.79 seconds (18.85 work units)
Thread count was 32 (of 32 available processors)

Solution count 5: 4521 4361 4284 ... 4267

Optimal solution found (tolerance 1.00e-04)
Best objective 4.521000000000e+03, best bound 4.521000000000e+03, gap 0.0000%

User-callback calls 77974, time in user-callback 12.34 sec
Minimal separator inequalities added: 32297
Indegree inequalities added: 0
Passed solution check
[on. 05. april 15:31:55 +0200 2023]  done

